S = 4;
start = [|2,0,0,0,0,0,0,16,0,0,0,0,0,0,0,0|
0,0,0,0,0,0,0,0,0,0,0,0,0,0,0,0|
0,0,14,0,0,0,0,0,0,0,0,0,0,0,4,0|
0,0,0,0,0,0,0,0,0,0,0,2,0,0,0,0|
0,0,0,0,0,0,0,0,0,0,0,0,0,0,0,0|
0,0,0,0,0,0,0,0,2,0,0,0,0,0,0,0|
0,0,0,0,0,0,0,0,7,5,0,0,0,0,0,0|
0,0,0,0,0,0,0,0,0,0,0,0,0,0,0,0|
0,0,0,0,0,0,0,0,0,0,0,0,0,0,0,0|
0,0,0,0,0,0,0,0,0,0,0,0,0,5,0,0|
0,0,0,0,0,0,0,0,0,0,0,0,0,0,0,0|
0,0,0,0,0,0,16,0,0,0,0,0,0,10,0,0|
0,0,0,0,0,0,0,0,0,0,0,0,0,0,0,0|
0,0,0,0,0,0,0,0,0,0,0,0,0,0,0,0|
0,0,0,0,0,0,0,6,0,0,0,0,0,0,0,0|
0,0,0,0,0,0,0,0,0,0,0,0,0,0,0,0|];